c FILE /home/rafael/Documents/HappySet/MIHS/inputs/happygen/output/graph_scale_free_k5_p0.1_v100_20241127_083836.txt
c SOURCE This is a scale-free graph formed for the happy graph colouring problem.
c DESCRIPTION It was generated using the problem generator of Rhyd Lewis
c
c GRAPH STATS
c Seed                             = 1572047933
c Number of Nodes                  = 100
c Number of colours k              = 5
c Number of pre-assignments        = 10
c Number of links per new node     = 5
c Density                          = 0.0979798
c 
c The degrees of nodes 1 to 100, respectively, are as follows 
c [31, 28, 27, 25, 24, 23, 23, 20, 19, 19, 19, 19, 18, 17, 17, 16, 16, 15, 14, 14, 13, 13, 13, 12, 11, 11, 
c  11, 11, 11, 10, 10, 10, 10, 9, 9, 9, 9, 9, 9, 9, 8, 8, 8, 8, 8, 8, 8, 7, 7, 7, 7, 
c  7, 7, 7, 7, 6, 6, 6, 6, 6, 6, 6, 6, 6, 6, 6, 6, 6, 6, 6, 6, 6, 6, 6, 6, 5, 
c  5, 5, 5, 5, 5, 5, 5, 5, 5, 5, 5, 5, 5, 5, 5, 5, 5, 5, 5, 5, 5, 5, 5, 5] 
c  
p edge 100 485 5
e 1 2
e 1 3
e 1 4
e 1 5
e 1 7
e 1 8
e 1 9
e 1 10
e 1 11
e 1 12
e 1 14
e 1 15
e 1 16
e 1 17
e 1 18
e 1 23
e 1 28
e 1 29
e 1 30
e 1 33
e 1 34
e 1 49
e 1 50
e 1 55
e 1 60
e 1 64
e 1 72
e 1 81
e 1 85
e 1 93
e 1 94
e 2 3
e 2 4
e 2 6
e 2 8
e 2 9
e 2 10
e 2 11
e 2 13
e 2 14
e 2 16
e 2 19
e 2 22
e 2 33
e 2 36
e 2 40
e 2 45
e 2 48
e 2 52
e 2 54
e 2 56
e 2 68
e 2 75
e 2 80
e 2 84
e 2 86
e 2 91
e 2 92
e 3 4
e 3 6
e 3 7
e 3 8
e 3 9
e 3 10
e 3 11
e 3 12
e 3 16
e 3 21
e 3 22
e 3 23
e 3 24
e 3 25
e 3 32
e 3 37
e 3 41
e 3 45
e 3 49
e 3 51
e 3 67
e 3 69
e 3 75
e 3 79
e 3 93
e 4 6
e 4 7
e 4 8
e 4 9
e 4 10
e 4 11
e 4 12
e 4 14
e 4 15
e 4 16
e 4 22
e 4 32
e 4 51
e 4 53
e 4 58
e 4 59
e 4 61
e 4 62
e 4 71
e 4 76
e 4 79
e 4 85
e 5 6
e 5 7
e 5 8
e 5 9
e 5 11
e 5 12
e 5 13
e 5 16
e 5 20
e 5 30
e 5 31
e 5 44
e 5 52
e 5 57
e 5 58
e 5 63
e 5 74
e 5 76
e 5 80
e 5 81
e 5 82
e 5 84
e 5 97
e 6 11
e 6 19
e 6 21
e 6 27
e 6 29
e 6 38
e 6 42
e 6 44
e 6 48
e 6 54
e 6 56
e 6 57
e 6 61
e 6 66
e 6 72
e 6 83
e 6 96
e 6 97
e 6 99
e 7 10
e 7 18
e 7 21
e 7 22
e 7 23
e 7 25
e 7 26
e 7 34
e 7 37
e 7 46
e 7 52
e 7 58
e 7 60
e 7 63
e 7 74
e 7 78
e 7 82
e 7 89
e 7 94
e 8 10
e 8 14
e 8 18
e 8 24
e 8 27
e 8 28
e 8 30
e 8 36
e 8 45
e 8 61
e 8 62
e 8 63
e 8 69
e 8 70
e 8 98
e 9 10
e 9 11
e 9 12
e 9 16
e 9 19
e 9 23
e 9 33
e 9 40
e 9 41
e 9 43
e 9 59
e 9 71
e 9 73
e 9 91
e 10 14
e 10 18
e 10 23
e 10 25
e 10 35
e 10 41
e 10 44
e 10 49
e 10 60
e 10 64
e 10 76
e 10 95
e 11 15
e 11 17
e 11 19
e 11 21
e 11 22
e 11 33
e 11 46
e 11 47
e 11 57
e 11 64
e 11 67
e 11 84
e 12 13
e 12 15
e 12 20
e 12 24
e 12 28
e 12 29
e 12 30
e 12 35
e 12 46
e 12 50
e 12 65
e 12 70
e 12 80
e 12 90
e 13 14
e 13 16
e 13 20
e 13 26
e 13 27
e 13 28
e 13 36
e 13 43
e 13 56
e 13 58
e 13 63
e 13 79
e 13 81
e 13 87
e 13 90
e 14 20
e 14 21
e 14 24
e 14 25
e 14 34
e 14 43
e 14 45
e 14 48
e 14 55
e 14 88
e 14 89
e 15 21
e 15 26
e 15 32
e 15 34
e 15 37
e 15 52
e 15 55
e 15 56
e 15 60
e 15 69
e 15 87
e 15 91
e 15 99
e 16 18
e 16 25
e 16 26
e 16 28
e 16 32
e 16 43
e 16 48
e 16 56
e 16 62
e 17 18
e 17 23
e 17 49
e 17 53
e 17 54
e 17 65
e 17 67
e 17 70
e 17 78
e 17 81
e 17 84
e 17 86
e 17 88
e 17 96
e 18 20
e 18 31
e 18 38
e 18 48
e 18 51
e 18 58
e 18 61
e 18 73
e 18 78
e 19 21
e 19 31
e 19 36
e 19 42
e 19 44
e 19 49
e 19 76
e 19 92
e 19 99
e 19 100
e 20 36
e 20 46
e 20 59
e 20 60
e 20 77
e 20 79
e 20 87
e 20 92
e 20 100
e 21 30
e 21 31
e 21 50
e 21 51
e 21 53
e 21 81
e 22 29
e 22 34
e 22 41
e 22 42
e 22 61
e 22 66
e 22 67
e 22 75
e 23 52
e 23 55
e 23 71
e 23 78
e 23 89
e 23 95
e 23 96
e 24 26
e 24 27
e 24 32
e 24 38
e 24 42
e 24 48
e 24 55
e 24 97
e 25 27
e 25 39
e 25 59
e 25 62
e 25 77
e 25 91
e 26 35
e 26 38
e 26 41
e 26 65
e 26 78
e 26 82
e 27 31
e 27 39
e 27 50
e 27 53
e 27 57
e 27 86
e 28 29
e 28 35
e 28 49
e 28 77
e 28 90
e 28 98
e 29 35
e 29 37
e 29 47
e 29 90
e 29 91
e 29 98
e 30 59
e 30 72
e 30 73
e 30 80
e 30 83
e 31 65
e 31 67
e 31 71
e 31 90
e 31 98
e 32 33
e 32 51
e 32 65
e 32 73
e 32 82
e 33 40
e 33 47
e 33 53
e 33 86
e 33 94
e 34 50
e 34 68
e 34 70
e 34 76
e 35 37
e 35 43
e 35 47
e 35 74
e 36 64
e 36 71
e 36 85
e 36 93
e 37 45
e 37 73
e 37 93
e 37 94
e 38 39
e 38 53
e 38 69
e 38 83
e 38 98
e 39 40
e 39 47
e 39 50
e 39 58
e 39 72
e 39 85
e 40 47
e 40 68
e 40 69
e 40 83
e 40 96
e 41 42
e 41 75
e 41 95
e 42 62
e 42 89
e 42 95
e 43 77
e 43 82
e 43 94
e 44 51
e 44 54
e 44 88
e 44 93
e 45 46
e 45 64
e 45 86
e 46 68
e 46 89
e 46 100
e 47 92
e 47 96
e 48 66
e 49 66
e 50 84
e 51 87
e 52 54
e 52 97
e 53 68
e 54 92
e 54 95
e 55 99
e 55 100
e 56 57
e 57 66
e 59 85
e 60 77
e 61 63
e 62 88
e 63 79
e 64 80
e 65 83
e 66 100
e 67 87
e 68 70
e 69 88
e 70 74
e 71 72
e 72 97
e 73 74
e 74 75
e 75 99
n 3 1
n 15 4
n 18 2
n 27 3
n 30 1
n 54 4
n 61 2
n 62 5
n 86 3
n 88 5
